326,350
504,378
523,188
396,498
494,501
584,336
639,364
713,613
681,766
681,946
494,501
364,-30
584,336
690,378
858,753
716,358
708,353
681,286
470,115
681,286
1162,161
861,406
945,42
861,406
734,433
681,766
